26227.5
99 81 49 76 29 43 74 38 18 92 87 62 15 10 51 5 96 25 53 70 93 40 90 0 1 94 35 30 27 86 55 14 91 52 22 88 66 33 85 42 45 8 60 2 17 12 82 28 11 7 64 31 56 32 26 21 50 72 97 16 13 65 54 73 80 44 95 59 57 20 84 19 41 75 9 63 23 83 68 58 37 46 48 39 78 6 36 98 89 79 61 69 34 77 71 24 4 47 3 67 
